
Gurobi 10.0.1 (win64) logging started Tue May  2 07:29:33 2023

Set parameter LogFile to value "logFiles/N-1L-A/N-1L-16U-28F-23V-300D-charterout.log"
Gurobi Optimizer version 10.0.1 build v10.0.1rc0 (win64)

CPU model: Intel(R) Core(TM) i7-10700 CPU @ 2.90GHz, instruction set [SSE2|AVX|AVX2]
Thread count: 8 physical cores, 16 logical processors, using up to 16 threads

Optimize a model with 383248 rows, 3311008 columns and 38512639 nonzeros
Model fingerprint: 0x18e00b21
Variable types: 8845 continuous, 3302163 integer (3302163 binary)
Coefficient statistics:
  Matrix range     [1e+00, 2e+05]
  Objective range  [4e+01, 3e+07]
  Bounds range     [1e+00, 1e+00]
  RHS range        [1e+00, 4e+06]
Presolve removed 125327 rows and 59947 columns (presolve time = 5s) ...
Presolve removed 126983 rows and 62109 columns (presolve time = 10s) ...
Presolve removed 126984 rows and 62109 columns (presolve time = 15s) ...
Presolve removed 126984 rows and 62109 columns (presolve time = 20s) ...
Presolve removed 140351 rows and 167811 columns (presolve time = 25s) ...
Presolve removed 140351 rows and 167811 columns (presolve time = 30s) ...
Presolve removed 230923 rows and 171529 columns (presolve time = 35s) ...
Presolve removed 231071 rows and 171739 columns (presolve time = 40s) ...
Presolve removed 231071 rows and 171739 columns (presolve time = 45s) ...
Presolve removed 231949 rows and 172646 columns (presolve time = 50s) ...
Presolve removed 232216 rows and 173046 columns (presolve time = 55s) ...
Presolve removed 233080 rows and 173870 columns (presolve time = 60s) ...
Presolve removed 233958 rows and 174776 columns (presolve time = 65s) ...
Presolve removed 234969 rows and 175841 columns (presolve time = 70s) ...
Presolve removed 235980 rows and 176906 columns (presolve time = 75s) ...
Presolve removed 236978 rows and 177958 columns (presolve time = 80s) ...
Presolve removed 237989 rows and 179049 columns (presolve time = 85s) ...
Presolve removed 239000 rows and 180114 columns (presolve time = 90s) ...
Presolve removed 239998 rows and 181140 columns (presolve time = 95s) ...
Presolve removed 258364 rows and 201513 columns (presolve time = 100s) ...
Presolve removed 258364 rows and 201937 columns (presolve time = 105s) ...
Presolve removed 258364 rows and 201937 columns (presolve time = 110s) ...
Presolve removed 262418 rows and 204572 columns (presolve time = 115s) ...
Presolve removed 262434 rows and 206850 columns (presolve time = 120s) ...
Presolve removed 262486 rows and 206863 columns (presolve time = 125s) ...
Presolve removed 264226 rows and 208544 columns (presolve time = 130s) ...
Presolve removed 263172 rows and 207490 columns
Presolve time: 130.87s
Presolved: 120076 rows, 3103518 columns, 18028050 nonzeros
Variable types: 5221 continuous, 3098297 integer (3098297 binary)
Deterministic concurrent LP optimizer: primal simplex, dual simplex, and barrier
Showing barrier log only...

Root barrier log...

Elapsed ordering time = 5s
Ordering time: 8.21s

Barrier statistics:
 AA' NZ     : 8.410e+06
 Factor NZ  : 3.818e+07 (roughly 1.6 GB of memory)
 Factor Ops : 1.002e+11 (roughly 1 second per iteration)
 Threads    : 5

                  Objective                Residual
Iter       Primal          Dual         Primal    Dual     Compl     Time
   0  -1.85702154e+17  5.64110124e+12  1.78e+10 1.11e+06  4.95e+11   192s
   1  -2.85394946e+16  9.55042714e+12  2.74e+09 1.40e+05  7.64e+10   197s
   2  -1.71079938e+14  6.72339486e+12  1.66e+07 9.78e-09  4.65e+08   203s
   3  -2.27491702e+13  5.33666031e+12  2.21e+06 2.79e-09  6.29e+07   209s
   4  -4.53916970e+12  4.28451948e+12  4.42e+05 2.79e-09  1.30e+07   216s
   5  -1.34183274e+12  3.59974697e+12  1.31e+05 9.36e-08  4.19e+06   222s
   6  -6.42879103e+11  2.40907132e+12  6.34e+04 4.10e-08  1.98e+06   227s
   7  -4.35682796e+11  1.89952181e+12  4.34e+04 8.85e-08  1.33e+06   231s
   8  -2.87012725e+11  1.43492433e+12  2.91e+04 6.80e-08  8.78e+05   235s
   9  -1.68465048e+11  8.99099469e+11  1.77e+04 3.93e-08  5.05e+05   239s
  10  -7.77420178e+10  5.30651285e+11  8.92e+03 3.42e-08  2.53e+05   244s
  11  -2.25375440e+10  2.38009447e+11  3.61e+03 1.70e-08  9.69e+04   249s
  12   1.24912935e+10  8.34763442e+10  2.40e+02 2.57e-08  1.45e+04   255s
  13   1.37332863e+10  6.46541217e+10  1.20e+02 1.95e-08  9.70e+03   261s
  14   1.40856744e+10  4.82974255e+10  8.65e+01 1.31e-08  6.56e+03   265s
  15   1.43542289e+10  4.15880534e+10  6.10e+01 1.58e-08  5.12e+03   269s
  16   1.44458722e+10  4.05023024e+10  5.27e+01 1.67e-08  4.83e+03   273s
  17   1.45034476e+10  3.54066699e+10  4.75e+01 2.98e-08  3.94e+03   278s
  18   1.46012008e+10  3.37826933e+10  3.93e+01 2.27e-08  3.56e+03   282s
  19   1.46450960e+10  3.07245191e+10  3.56e+01 2.30e-08  3.02e+03   288s
  20   1.47226296e+10  2.75757268e+10  2.94e+01 3.32e-08  2.43e+03   295s
  21   1.47591890e+10  2.56167583e+10  2.65e+01 3.47e-08  2.08e+03   301s

Barrier performed 21 iterations in 301.10 seconds (363.10 work units)
Time limit reached



Root relaxation: time limit, 0 iterations, 154.43 seconds (63.76 work units)

Explored 1 nodes (0 simplex iterations) in 301.84 seconds (350.74 work units)
Thread count was 16 (of 16 available processors)

Solution count 0

Time limit reached
Best objective -, best bound 2.328066985141e+13, gap -
IIS computation: initial model status unknown, solving to determine model status
Presolve removed 125327 rows and 59947 columns (presolve time = 5s) ...
Presolve removed 126983 rows and 62109 columns (presolve time = 11s) ...
Presolve removed 126984 rows and 62109 columns (presolve time = 15s) ...
Presolve removed 126984 rows and 62109 columns (presolve time = 21s) ...
Presolve removed 140433 rows and 169869 columns (presolve time = 25s) ...
Presolve removed 140433 rows and 169869 columns (presolve time = 30s) ...
Presolve removed 233040 rows and 173604 columns (presolve time = 35s) ...
Presolve removed 233162 rows and 174010 columns (presolve time = 40s) ...
Presolve removed 233162 rows and 174010 columns (presolve time = 45s) ...
Presolve removed 234014 rows and 174904 columns (presolve time = 50s) ...
Presolve removed 234134 rows and 175036 columns (presolve time = 55s) ...
Presolve removed 234986 rows and 175930 columns (presolve time = 60s) ...
Presolve removed 235958 rows and 176956 columns (presolve time = 65s) ...
Presolve removed 236930 rows and 177982 columns (presolve time = 70s) ...
Presolve removed 237902 rows and 179008 columns (presolve time = 75s) ...
Presolve removed 238874 rows and 180034 columns (presolve time = 80s) ...
Presolve removed 239846 rows and 181060 columns (presolve time = 85s) ...
Presolve removed 240818 rows and 182086 columns (presolve time = 90s) ...
Presolve removed 241790 rows and 183112 columns (presolve time = 95s) ...
Presolve removed 260156 rows and 203471 columns (presolve time = 100s) ...
Presolve removed 260156 rows and 203910 columns (presolve time = 105s) ...
Presolve removed 260156 rows and 203910 columns (presolve time = 110s) ...
Presolve removed 260156 rows and 203910 columns (presolve time = 115s) ...
Presolve removed 264220 rows and 208796 columns (presolve time = 120s) ...
Presolve removed 264226 rows and 208802 columns (presolve time = 125s) ...
Presolve removed 264226 rows and 208802 columns (presolve time = 130s) ...
Presolve removed 263172 rows and 207748 columns
Presolve time: 133.23s
Presolved: 120076 rows, 3103260 columns, 18026617 nonzeros
Variable types: 5221 continuous, 3098039 integer (3098039 binary)
Deterministic concurrent LP optimizer: primal simplex, dual simplex, and barrier
Showing barrier log only...

Root barrier log...

Elapsed ordering time = 5s
Elapsed ordering time = 10s
Ordering time: 10.99s

Barrier statistics:
 AA' NZ     : 8.410e+06
 Factor NZ  : 3.818e+07 (roughly 1.6 GB of memory)
 Factor Ops : 1.002e+11 (roughly 1 second per iteration)
 Threads    : 5

                  Objective                Residual
Iter       Primal          Dual         Primal    Dual     Compl     Time
   0  -0.00000000e+00  2.40826045e+05  1.78e+10 0.00e+00  1.98e+04   187s
   1  -0.00000000e+00  3.90982836e+05  2.73e+09 5.04e-03  3.05e+03   192s
   2  -0.00000000e+00  2.84020703e+05  1.43e+07 1.39e-16  1.60e+01   196s
   3  -0.00000000e+00  2.24535777e+05  1.14e+07 1.39e-16  1.28e+01   202s
   4  -0.00000000e+00  3.00688916e+04  3.56e+05 2.55e-17  6.58e-02   210s
   5  -0.00000000e+00  5.65637357e+03  7.32e+04 1.06e-15  4.40e-03   216s
   6  -0.00000000e+00  3.59996925e+03  4.20e+04 6.76e-16  2.11e-03   222s
   7  -0.00000000e+00  1.93023579e+03  1.53e+04 3.77e-16  7.10e-04   227s
   8  -0.00000000e+00  6.44149309e+02  8.33e+03 2.09e-16  2.46e-04   231s
   9  -0.00000000e+00  3.28244731e+02  2.30e+03 7.53e-17  8.37e-05   236s
  10  -0.00000000e+00  7.99321409e+01  3.34e+02 8.06e-09  1.62e-05   242s
  11  -0.00000000e+00  5.21524482e+01  1.24e+02 9.60e-09  9.56e-06   248s
  12  -0.00000000e+00  3.12265341e+01  8.20e+01 9.91e-09  5.77e-06   256s
  13  -0.00000000e+00  2.46429607e+01  5.71e+01 8.98e-09  4.49e-06   262s
  14  -0.00000000e+00  2.41700764e+01  4.69e+01 8.40e-09  4.32e-06   267s
  15  -0.00000000e+00  2.00626149e+01  4.26e+01 9.10e-09  3.63e-06   272s
  16  -0.00000000e+00  1.82167603e+01  3.76e+01 4.82e-09  3.29e-06   278s
  17  -0.00000000e+00  1.63126394e+01  3.20e+01 4.02e-09  2.93e-06   284s
  18  -0.00000000e+00  1.32664809e+01  2.41e+01 7.85e-09  2.38e-06   292s
  19  -0.00000000e+00  1.11671335e+01  2.21e+01 1.23e-08  2.02e-06   300s

Barrier performed 19 iterations in 300.15 seconds (367.19 work units)
Time limit reached



Root relaxation: time limit, 0 iterations, 147.46 seconds (61.88 work units)

Explored 1 nodes (0 simplex iterations) in 300.66 seconds (349.27 work units)
Thread count was 16 (of 16 available processors)

Solution count 0

Time limit reached
Best objective -, best bound -0.000000000000e+00, gap -
IIS runtime: 300.88 seconds (349.27 work units)
